title "This is a story about an ordinary teddy bear."

echo "Thundercats HO!"

#Hellow 64GB / 16 node machine... will you be my friend?
memory stack 750 mb heap 1500 mb global 1500 mb

geometry units angstroms noautoz noautosym
#First our Ethylene... B3lyp/6-311g* optimisation, Gaussian, using symmetry. JMF 2013-01-28
C 0.000000 0.000000 0.663493
C 0.000000 0.000000 -0.663493
H 0.000000 0.922503 1.236446
H 0.000000 -0.922503 1.236446
H 0.000000 -0.922503 -1.236446
H 0.000000 0.922503 -1.236446

#Now our C2F2...  B3lyp/6-311g* optimisation, Gaussian, using symmetry. JMF 2013-01-28

C 10.000000 0.000000 0.660905
C 10.000000 0.000000 -0.660905
F 10.000000 1.103866 1.386732
F 10.000000 -1.103866 1.386732
F 10.000000 -1.103866 -1.386732
F 10.000000 1.103866 -1.386732

end
basis
 * library 6-31++G*
end

dft
 iterations 50
 print  kinetic_energy

 xc b3lyp
# convergence nolevelshifting
#code for Constrained DFT - see http://www.nwchem-sw.org/index.php/Density_Functional_Theory_for_Molecules#CDFT_--_Constrained_DFT
 odft
 mult 1
# vectors swap beta 128 127  #unsure how to calculate this for PCBM... 231 alpha electrons      231 beta electrons <- mono PCBM
 cdft 1 6   charge +1.0 #Ethylene
 cdft 1 6   spin   +1.0

 cdft 7 12  charge -1.0 #C2F4
 cdft 7 12  spin   -1.0
end
set dft:cdft_maxiter 1000

task dft energy

#tddft
# nroots 1
# singlet
#end
#
#task tddft energy
