end
basis
# * library 6-31g*
 * library sto-3g
end

# OK, geometry read in...

dft
#  xc pbe0 
  xc pbe 
end

## Compute ground state of the system
task dft energy

unset rt_tddft:*
rt_tddft
    tmax 200.0
    dt 0.2
 
    tag "kick_x"
  
    field "kick"
        type delta
        polarization x
        max 0.0001
    end

    excite "system" with "kick"
end

task dft rt_tddft

